3255
5399
2560
7934
3389
8942
7034
8080
9643
8124
6809
7183
3737
3868
6358
10071
7350
3805
2083
660
2169
8886
3199
7160
8608
10199
5971
9706
1304
4649
1355
1887
2328
8640
2796
7299
10163
3704
2836
8979
5931
1919
2885
9250
8650
8671
10056
9530
7550
3202
4438
